NAME : ClusterId_258 
COMMENT : (Gillet and Johnson) 
TYPE : CVRP 
DIMENSION : 4 
EDGE_WEIGHT_TYPE : EUC_2D 
CAPACITY : 500 
NODE_COORD_SECTION 
258 70 0 
24 64 -17 
237 63 -14 
112 62 -8 
DEMAND_SECTION 
258 80
24 8
237 22
112 42
DEPOT_SECTION 
258
 -1
EOF